n_jobs = 20;
n_machines = 5;

job_task_duration = array2d(jobs, tasks, [
	34, 5, 86, 28, 8,
	20, 48, 35, 39, 91,
	57, 80, 5, 55, 45,
	47, 43, 93, 21, 55,
	62, 34, 74, 25, 75,
	40, 2, 12, 88, 18,
	74, 87, 40, 59, 59,
	94, 68, 95, 40, 86,
	9, 28, 80, 90, 45,
	62, 84, 6, 18, 89,
	86, 30, 92, 33, 11,
	13, 35, 14, 10, 54,
	78, 42, 83, 59, 38,
	46, 39, 49, 92, 41,
	83, 85, 36, 15, 64,
	52, 34, 38, 77, 98,
	13, 36, 43, 31, 83,
	70, 9, 89, 85, 36,
	40, 96, 94, 85, 61,
	60, 84, 33, 99, 19
]);

due_date_jobs = [448, 474, 533, 463, 719, 166, 371, 815, 733, 450, 554, 199, 767, 337, 988, 951, 425, 836, 412, 671];